(set-logic QF_BV)
(declare-fun _substvar_674_ () Bool)
(declare-fun _substvar_218_ () (_ BitVec 11))
(declare-fun _substvar_319_ () (_ BitVec 11))
(declare-fun _substvar_316_ () (_ BitVec 11))
(declare-fun _substvar_1540_ () (_ BitVec 11))
(declare-fun _substvar_728_ () Bool)
(declare-fun _substvar_322_ () (_ BitVec 11))
(declare-fun _substvar_224_ () (_ BitVec 11))
(declare-fun _substvar_673_ () Bool)
(declare-fun _substvar_324_ () (_ BitVec 11))
(declare-fun _substvar_225_ () (_ BitVec 11))
(declare-fun _substvar_70_ () (_ BitVec 11))
(declare-fun _substvar_216_ () (_ BitVec 11))
(define-fun shlok ((x (_ BitVec 11)) (y (_ BitVec 11))) Bool (= (bvand x _substvar_70_) (_ bv0 11)))
(assert (or false false false false false false false false false false false false false false false false false false false false false (and _substvar_674_ _substvar_673_ (= _substvar_224_ (_ bv0 11))) false false false false false false false false false false false false false false false false (and true true (bvugt _substvar_1540_ (_ bv0 11)) (= _substvar_224_ (bvsub (bvshl _substvar_218_ _substvar_225_) (_ bv0 11)))) false false false false false false false (and true (shlok _substvar_218_ _substvar_225_) (= _substvar_224_ (_ bv0 11))) false false false false false false false false))
(assert (or false false false false false false false false false false false false false false false false false false false false false false false false false false false false false false false false false false false false false false false false false false false false false false false false false false false false false false false false false false false false false false false false false false false false (and true true true (= _substvar_316_ (bvsub _substvar_216_ _substvar_224_))) (and true true (bvugt _substvar_224_ _substvar_216_) (= _substvar_316_ (_ bv0 11))) false false false false false))
(assert (or false false false false false false false false false false false false false false false false false false false false false false false false false false false false false false false false false false false false false false false false false false false false false false false false false false false false false false false false false false false false false false false false false false false false false false false false (and true (shlok _substvar_316_ (_ bv0 11)) (bvugt _substvar_218_ _substvar_316_) (= _substvar_319_ (bvsub _substvar_218_ _substvar_316_))) false false false false false false false false false false false false false false false false false false false false false false false false false))
(assert (or false false false false false false false false false false false false false false false false false false false false false false false false false false false false false false false false false false false false false false false false false false false false false false false false false false false false false false false false false false false false false false false false false (and true true _substvar_728_ (= _substvar_322_ (_ bv0 11))) false false (and true true true (= _substvar_322_ (_ bv0 11))) false false false false false false false false false false false false false false false false false false false false false false false false false false false false false false false false false false false false false false false false false false false false false false false false false false false false false false false false false false false false false false false false false false false false false false false false false false false false false false false false false false false false))
(assert (or false false false false false false false false false false false false false false false false false false false false false false false false false false false false false false false false false false false false false false false false false false false false false false false false false false false false false false false false false false false false false false false false false false false false false false false false false false false false false false false false false false false false false false false false false false false false false false false false false false false false false false false false false false false false false false false false false false false false false false false false false false false false false false false false false false false false false false false false false (and true true (bvugt _substvar_316_ _substvar_224_) (= _substvar_324_ (bvsub _substvar_316_ _substvar_224_))) false (and (shlok _substvar_224_ (_ bv0 11)) true (bvugt _substvar_224_ (_ bv0 11)) (= _substvar_324_ (_ bv0 11))) false false false false false false false false false false false false false false false false false false false false false false false false false false false false false false false false false false false false false false false false false false false false false))
(assert (or (= (_ bv777 11) _substvar_218_) (= (_ bv777 11) _substvar_216_) (= (_ bv777 11) _substvar_224_) (= (_ bv777 11) _substvar_316_) (= (_ bv777 11) _substvar_319_) false (= (_ bv777 11) _substvar_322_) (= (_ bv777 11) _substvar_324_)))
(assert (or (= (_ bv169 11) _substvar_218_) (= (_ bv169 11) _substvar_216_) false false (= (_ bv169 11) _substvar_319_) false false (= (_ bv169 11) _substvar_324_)))
(assert (or (= (_ bv11 11) _substvar_218_) (= (_ bv11 11) _substvar_216_) (= (_ bv11 11) _substvar_224_) (= (_ bv11 11) _substvar_316_) (= (_ bv11 11) _substvar_319_) false false (= (_ bv11 11) _substvar_324_)))
(check-sat)
(exit)
